[2026-03-24T16:34:27.222Z] Pipeline "set_vm-3-t3_vm-3-t3_s003_g001" → 2026_03_24_16_34_27_set_vm-3-t3_vm-3-t3_s003_g001_max.sol
Set parameter Username
Set parameter LicenseID to value 2796068
Set parameter LogFile to value "gurobi.log"
Using license file /opt/gurobi/gurobi.lic
Academic license - for non-commercial use only - expires 2027-03-23

Gurobi Optimizer version 13.0.1 build v13.0.1rc0 (linux64 - "Ubuntu 24.04.4 LTS")
Copyright (c) 2026, Gurobi Optimization, LLC

Warning: Duplicate section found (read 'binary') - Is a variable name equal to an LP file format keyword?
Warning: Duplicate section found (read 'binary') - Is a variable name equal to an LP file format keyword?
Warning: Duplicate section found (read 'binary') - Is a variable name equal to an LP file format keyword?
Warning: Duplicate section found (read 'binary') - Is a variable name equal to an LP file format keyword?
Warning: Duplicate section found (read 'binary') - Is a variable name equal to an LP file format keyword?
Warning: Duplicate section found (read 'binary') - Is a variable name equal to an LP file format keyword?
Warning: Duplicate section found (read 'binary') - Is a variable name equal to an LP file format keyword?
Warning: Duplicate section found (read 'binary') - Is a variable name equal to an LP file format keyword?
Warning: Duplicate section found (read 'binary') - Is a variable name equal to an LP file format keyword?
Warning: Duplicate section found (read 'binary') - Is a variable name equal to an LP file format keyword?
Warning: Further warnings of this type will be omitted.
Read LP format model from file /root/bgw/data/uploads/2026_03_24_16_34_27_set_vm-3-t3_vm-3-t3_s003_g001_max.lp
Reading time = 0.00 seconds
: 943 rows, 167 columns, 2784 nonzeros

Using Gurobi shared library /opt/gurobi1301/linux64/lib/libgurobi.so.13.0.1

CPU model: AMD EPYC-Genoa Processor, instruction set [SSE2|AVX|AVX2|AVX512]
Thread count: 16 physical cores, 16 logical processors, using up to 16 threads

Optimize a model with 943 rows, 167 columns and 2784 nonzeros (Max)
Model fingerprint: 0x310236ff
Model has 42 linear objective coefficients
Variable types: 55 continuous, 112 integer (112 binary)
Coefficient statistics:
  Matrix range     [1e+00, 1e+01]
  Objective range  [1e+00, 1e+00]
  Bounds range     [1e+00, 1e+00]
  RHS range        [1e+00, 2e+01]

Found heuristic solution: objective 42.0000000
Presolve removed 335 rows and 68 columns
Presolve time: 0.00s
Presolved: 608 rows, 99 columns, 1884 nonzeros
Variable types: 0 continuous, 99 integer (93 binary)
Found heuristic solution: objective 72.0000000

Root relaxation: objective 2.670000e+02, 81 iterations, 0.00 seconds (0.00 work units)

    Nodes    |    Current Node    |     Objective Bounds      |     Work
 Expl Unexpl |  Obj  Depth IntInf | Incumbent    BestBd   Gap | It/Node Time

     0     0  267.00000    0   25   72.00000  267.00000   271%     -    0s
H    0     0                      87.0000000  267.00000   207%     -    0s
H    0     0                     102.0000000  267.00000   162%     -    0s
H    0     0                     117.0000000  267.00000   128%     -    0s
     0     0  267.00000    0   26  117.00000  267.00000   128%     -    0s
     0     0  267.00000    0   26  117.00000  267.00000   128%     -    0s
     0     0  267.00000    0   24  117.00000  267.00000   128%     -    0s
     0     0  267.00000    0   14  117.00000  267.00000   128%     -    0s
     0     0  264.27273    0   21  117.00000  264.27273   126%     -    0s
     0     0  252.68182    0   12  117.00000  252.68182   116%     -    0s
     0     0  252.68182    0   12  117.00000  252.68182   116%     -    0s
     0     0  252.00000    0   12  117.00000  252.00000   115%     -    0s
     0     0  252.00000    0   21  117.00000  252.00000   115%     -    0s
     0     0  252.00000    0   20  117.00000  252.00000   115%     -    0s
     0     0  252.00000    0   13  117.00000  252.00000   115%     -    0s
     0     0  252.00000    0   19  117.00000  252.00000   115%     -    0s
     0     0  252.00000    0   14  117.00000  252.00000   115%     -    0s
     0     0  246.54545    0   14  117.00000  246.54545   111%     -    0s
     0     0  246.54545    0   12  117.00000  246.54545   111%     -    0s
     0     0  246.54545    0   12  117.00000  246.54545   111%     -    0s
     0     0  237.00000    0   19  117.00000  237.00000   103%     -    0s
     0     0  237.00000    0   15  117.00000  237.00000   103%     -    0s
     0     0  235.18182    0   14  117.00000  235.18182   101%     -    0s
     0     0  235.18182    0   20  117.00000  235.18182   101%     -    0s
     0     0  235.18182    0   14  117.00000  235.18182   101%     -    0s
     0     0  232.90909    0   14  117.00000  232.90909  99.1%     -    0s
     0     2  232.90909    0   14  117.00000  232.90909  99.1%     -    0s

Cutting planes:
  Gomory: 3
  Cover: 25
  MIR: 4
  Inf proof: 60
  Zero half: 1

Explored 5612 nodes (109042 simplex iterations) in 0.46 seconds (0.49 work units)
Thread count was 16 (of 16 available processors)

Solution count 5: 117 102 87 ... 42

Optimal solution found (tolerance 1.00e-04)
Best objective 1.170000000000e+02, best bound 1.170000000000e+02, gap 0.0000%

Wrote result file '/root/bgw/data/results/2026_03_24_16_34_27_set_vm-3-t3_vm-3-t3_s003_g001_max.sol'

